Welcome to the CBC MILP Solver 
Version: 2.10.7 
Build Date: Feb 14 2022 

command line - cbc inputs/new_tr/order/dag78_down_left_input.lp sec 1800 solve solu solutions/new_tr/dag78_down_left_input.lp (default strategy 1)
seconds was changed from 1e+100 to 1800
Continuous objective value is 753664 - 0.88 seconds
Cgl0002I 1047 variables fixed
Cgl0003I 0 fixed, 1 tightened bounds, 651 strengthened rows, 0 substitutions
Cgl0003I 0 fixed, 0 tightened bounds, 37 strengthened rows, 0 substitutions
Cgl0004I processed model has 3162 rows, 1043 columns (1043 integer (1002 of which binary)) and 10465 elements
Cutoff increment increased from 1e-05 to 0.9999
Cbc0045I 1 integer variables out of 1043 objects (1043 integer) have cost of 1 - high priority
Cbc0045I branch on satisfied Y create fake objective Y random cost Y
Cbc0038I Initial state - 295 integers unsatisfied sum - 56.6158
Cbc0038I Pass   1: (1.18 seconds) suminf.   33.98173 (245) obj. 943351 iterations 725
Cbc0038I Pass   2: (1.20 seconds) suminf.   33.28855 (214) obj. 943787 iterations 106
Cbc0038I Pass   3: (1.23 seconds) suminf.   28.71185 (217) obj. 965828 iterations 220
Cbc0038I Pass   4: (1.24 seconds) suminf.   27.22316 (219) obj. 954786 iterations 43
Cbc0038I Pass   5: (1.25 seconds) suminf.   26.93773 (215) obj. 956453 iterations 100
Cbc0038I Pass   6: (1.26 seconds) suminf.   27.36553 (214) obj. 957569 iterations 17
Cbc0038I Pass   7: (1.29 seconds) suminf.   23.56943 (182) obj. 946546 iterations 242
Cbc0038I Pass   8: (1.30 seconds) suminf.   23.45959 (184) obj. 946703 iterations 20
Cbc0038I Pass   9: (1.33 seconds) suminf.   12.13109 (164) obj. 965144 iterations 274
Cbc0038I Pass  10: (1.34 seconds) suminf.   12.33031 (156) obj. 953629 iterations 36
Cbc0038I Pass  11: (1.38 seconds) suminf.    9.00752 (140) obj. 917504 iterations 315
Cbc0038I Pass  12: (1.39 seconds) suminf.    8.72623 (143) obj. 917504 iterations 111
Cbc0038I Pass  13: (1.42 seconds) suminf.    6.26800 (51) obj. 917160 iterations 294
Cbc0038I Pass  14: (1.43 seconds) suminf.    6.26800 (51) obj. 917160 iterations 11
Cbc0038I Pass  15: (1.46 seconds) suminf.    4.37818 (49) obj. 916661 iterations 284
Cbc0038I Pass  16: (1.46 seconds) suminf.    2.72860 (41) obj. 916686 iterations 7
Cbc0038I Pass  17: (1.51 seconds) suminf.    3.96618 (39) obj. 901120 iterations 388
Cbc0038I Pass  18: (1.51 seconds) suminf.    3.96618 (39) obj. 901120 iterations 9
Cbc0038I Pass  19: (1.58 seconds) suminf.    4.76926 (34) obj. 917504 iterations 689
Cbc0038I Pass  20: (1.58 seconds) suminf.    3.27806 (42) obj. 917504 iterations 49
Cbc0038I Pass  21: (1.59 seconds) suminf.    3.67867 (54) obj. 917504 iterations 79
Cbc0038I Pass  22: (1.59 seconds) suminf.    3.30771 (48) obj. 917504 iterations 8
Cbc0038I Pass  23: (1.61 seconds) suminf.    3.46480 (61) obj. 1.09675e+06 iterations 135
Cbc0038I Pass  24: (1.61 seconds) suminf.    3.42859 (61) obj. 1.09675e+06 iterations 1
Cbc0038I Pass  25: (1.63 seconds) suminf.    2.51875 (51) obj. 1.1508e+06 iterations 88
Cbc0038I Pass  26: (1.63 seconds) suminf.    2.38453 (45) obj. 1.15099e+06 iterations 18
Cbc0038I Pass  27: (1.65 seconds) suminf.    3.14410 (53) obj. 1.09675e+06 iterations 156
Cbc0038I Pass  28: (1.65 seconds) suminf.    3.10790 (53) obj. 1.09675e+06 iterations 6
Cbc0038I Pass  29: (1.66 seconds) suminf.    2.52991 (50) obj. 1.15178e+06 iterations 79
Cbc0038I Pass  30: (1.67 seconds) suminf.    2.38784 (44) obj. 1.15195e+06 iterations 4
Cbc0038I Pass  31: (1.68 seconds) suminf.    3.66750 (52) obj. 1.09666e+06 iterations 91
Cbc0038I Pass  32: (1.68 seconds) suminf.    3.63282 (52) obj. 1.09666e+06 iterations 4
Cbc0038I Pass  33: (1.69 seconds) suminf.    2.07838 (52) obj. 907465 iterations 91
Cbc0038I Pass  34: (1.70 seconds) suminf.    2.06484 (51) obj. 907465 iterations 3
Cbc0038I Pass  35: (1.74 seconds) suminf.    1.22432 (30) obj. 896037 iterations 426
Cbc0038I Pass  36: (1.74 seconds) suminf.    1.22432 (30) obj. 896037 iterations 3
Cbc0038I Pass  37: (1.81 seconds) suminf.    1.18891 (24) obj. 1.09688e+06 iterations 560
Cbc0038I Pass  38: (1.83 seconds) suminf.    1.20157 (17) obj. 1.09676e+06 iterations 206
Cbc0038I Pass  39: (1.84 seconds) suminf.    1.20157 (17) obj. 1.09676e+06 iterations 2
Cbc0038I Pass  40: (1.85 seconds) suminf.    0.98722 (17) obj. 917629 iterations 102
Cbc0038I Pass  41: (1.86 seconds) suminf.    0.85057 (15) obj. 913191 iterations 33
Cbc0038I Pass  42: (1.87 seconds) suminf.    0.79367 (23) obj. 1.03196e+06 iterations 129
Cbc0038I Pass  43: (1.88 seconds) suminf.    1.20232 (24) obj. 900483 iterations 62
Cbc0038I Pass  44: (1.88 seconds) suminf.    1.18920 (23) obj. 900483 iterations 2
Cbc0038I Pass  45: (1.90 seconds) suminf.    0.00000 (0) obj. 901120 iterations 127
Cbc0038I Solution found of 901120
Cbc0038I Cleaned solution of 901120
Cbc0038I Before mini branch and bound, 612 integers at bound fixed and 0 continuous
Cbc0038I Full problem 3162 rows 1043 columns, reduced to 640 rows 212 columns
Cbc0038I Mini branch and bound improved solution from 901120 to 819200 (2.04 seconds)
Cbc0038I Round again with cutoff of 812646
Cbc0038I Reduced cost fixing fixed 5 variables on major pass 2
Cbc0038I Pass  46: (2.06 seconds) suminf.   36.56647 (210) obj. 812645 iterations 137
Cbc0038I Pass  47: (2.08 seconds) suminf.   35.51010 (207) obj. 812646 iterations 155
Cbc0038I Pass  48: (2.08 seconds) suminf.   35.51010 (207) obj. 812646 iterations 1
Cbc0038I Pass  49: (2.13 seconds) suminf.   27.34982 (176) obj. 812646 iterations 398
Cbc0038I Pass  50: (2.15 seconds) suminf.   26.49080 (177) obj. 812646 iterations 134
Cbc0038I Pass  51: (2.15 seconds) suminf.   27.20622 (174) obj. 812646 iterations 7
Cbc0038I Pass  52: (2.16 seconds) suminf.   27.16478 (175) obj. 812646 iterations 19
Cbc0038I Pass  53: (2.18 seconds) suminf.   22.12360 (127) obj. 812646 iterations 165
Cbc0038I Pass  54: (2.19 seconds) suminf.   18.58950 (119) obj. 812646 iterations 134
Cbc0038I Pass  55: (2.20 seconds) suminf.   18.58950 (119) obj. 812646 iterations 0
Cbc0038I Pass  56: (2.21 seconds) suminf.   16.00483 (108) obj. 812646 iterations 109
Cbc0038I Pass  57: (2.22 seconds) suminf.   15.92254 (108) obj. 812646 iterations 62
Cbc0038I Pass  58: (2.24 seconds) suminf.   14.15352 (127) obj. 812646 iterations 236
Cbc0038I Pass  59: (2.25 seconds) suminf.   13.51450 (101) obj. 812646 iterations 6
Cbc0038I Pass  60: (2.28 seconds) suminf.   10.49401 (120) obj. 812646 iterations 267
Cbc0038I Pass  61: (2.34 seconds) suminf.   10.52891 (76) obj. 812646 iterations 593
Cbc0038I Pass  62: (2.35 seconds) suminf.    6.85364 (66) obj. 812646 iterations 60
Cbc0038I Pass  63: (2.35 seconds) suminf.    6.34256 (66) obj. 812646 iterations 35
Cbc0038I Pass  64: (2.43 seconds) suminf.    4.34640 (67) obj. 812646 iterations 834
Cbc0038I Pass  65: (2.43 seconds) suminf.    4.34640 (67) obj. 812646 iterations 2
Cbc0038I Pass  66: (2.45 seconds) suminf.   10.58992 (67) obj. 812646 iterations 238
Cbc0038I Pass  67: (2.46 seconds) suminf.    9.70707 (58) obj. 812646 iterations 41
Cbc0038I Pass  68: (2.47 seconds) suminf.    4.71401 (46) obj. 812646 iterations 123
Cbc0038I Pass  69: (2.48 seconds) suminf.    4.30600 (45) obj. 812646 iterations 25
Cbc0038I Pass  70: (2.53 seconds) suminf.   11.87525 (67) obj. 812646 iterations 578
Cbc0038I Pass  71: (2.54 seconds) suminf.   10.98135 (70) obj. 812646 iterations 102
Cbc0038I Pass  72: (2.56 seconds) suminf.   11.09024 (88) obj. 812646 iterations 228
Cbc0038I Pass  73: (2.57 seconds) suminf.   10.81741 (91) obj. 812646 iterations 68
Cbc0038I Pass  74: (2.59 seconds) suminf.    5.70619 (49) obj. 812646 iterations 165
Cbc0038I Pass  75: (2.59 seconds) suminf.    5.70619 (49) obj. 812646 iterations 1
Cbc0038I Pass  76: (2.63 seconds) suminf.    8.45856 (61) obj. 812646 iterations 416
Cbc0038I Pass  77: (2.64 seconds) suminf.    7.84549 (58) obj. 812646 iterations 62
Cbc0038I Pass  78: (2.64 seconds) suminf.    7.86441 (63) obj. 812646 iterations 23
Cbc0038I Pass  79: (2.66 seconds) suminf.    6.17202 (32) obj. 812646 iterations 168
Cbc0038I Pass  80: (2.67 seconds) suminf.    4.63243 (28) obj. 812646 iterations 45
Cbc0038I Pass  81: (2.68 seconds) suminf.    7.60086 (54) obj. 812646 iterations 162
Cbc0038I Pass  82: (2.69 seconds) suminf.    6.55224 (57) obj. 812646 iterations 80
Cbc0038I Pass  83: (2.71 seconds) suminf.    9.75484 (60) obj. 812646 iterations 195
Cbc0038I Pass  84: (2.73 seconds) suminf.    7.45669 (85) obj. 812646 iterations 140
Cbc0038I Pass  85: (2.75 seconds) suminf.    6.42734 (68) obj. 812646 iterations 226
Cbc0038I Pass  86: (2.76 seconds) suminf.    6.43071 (66) obj. 812646 iterations 2
Cbc0038I Pass  87: (2.79 seconds) suminf.   10.80637 (72) obj. 812646 iterations 339
Cbc0038I Pass  88: (2.80 seconds) suminf.    7.53577 (45) obj. 812646 iterations 131
Cbc0038I Pass  89: (2.82 seconds) suminf.    7.22997 (50) obj. 812646 iterations 188
Cbc0038I Pass  90: (2.83 seconds) suminf.    4.48005 (37) obj. 812646 iterations 75
Cbc0038I Pass  91: (2.86 seconds) suminf.   10.74133 (79) obj. 812646 iterations 222
Cbc0038I Pass  92: (2.86 seconds) suminf.    9.62628 (81) obj. 812646 iterations 41
Cbc0038I Pass  93: (2.88 seconds) suminf.    5.23562 (54) obj. 812646 iterations 161
Cbc0038I Pass  94: (2.89 seconds) suminf.    4.93567 (53) obj. 812646 iterations 36
Cbc0038I Pass  95: (2.90 seconds) suminf.    8.99057 (44) obj. 812646 iterations 98
Cbc0038I Pass  96: (2.90 seconds) suminf.    7.15352 (41) obj. 812646 iterations 33
Cbc0038I Pass  97: (2.92 seconds) suminf.    4.46998 (59) obj. 812646 iterations 138
Cbc0038I Pass  98: (2.93 seconds) suminf.    4.00586 (46) obj. 812646 iterations 53
Cbc0038I Pass  99: (2.94 seconds) suminf.    7.72545 (52) obj. 812646 iterations 91
Cbc0038I Pass 100: (2.94 seconds) suminf.    7.76676 (49) obj. 812646 iterations 18
Cbc0038I Pass 101: (2.95 seconds) suminf.    6.38601 (50) obj. 812646 iterations 91
Cbc0038I Pass 102: (2.96 seconds) suminf.    4.00635 (56) obj. 812646 iterations 43
Cbc0038I Pass 103: (2.96 seconds) suminf.    4.33481 (33) obj. 812646 iterations 14
Cbc0038I Pass 104: (2.98 seconds) suminf.    5.84364 (51) obj. 812646 iterations 157
Cbc0038I Pass 105: (2.98 seconds) suminf.    5.75550 (53) obj. 812646 iterations 4
Cbc0038I Pass 106: (3.00 seconds) suminf.    6.64394 (56) obj. 812646 iterations 137
Cbc0038I Pass 107: (3.00 seconds) suminf.    6.01775 (56) obj. 812646 iterations 6
Cbc0038I Pass 108: (3.02 seconds) suminf.   10.98788 (86) obj. 812646 iterations 183
Cbc0038I Pass 109: (3.04 seconds) suminf.    9.38232 (94) obj. 812646 iterations 171
Cbc0038I Pass 110: (3.06 seconds) suminf.    8.81191 (90) obj. 812646 iterations 337
Cbc0038I Pass 111: (3.07 seconds) suminf.    8.48182 (91) obj. 812646 iterations 13
Cbc0038I Pass 112: (3.11 seconds) suminf.    7.51592 (66) obj. 812646 iterations 520
Cbc0038I Pass 113: (3.13 seconds) suminf.    5.24815 (50) obj. 812646 iterations 134
Cbc0038I Pass 114: (3.16 seconds) suminf.    8.10886 (65) obj. 812646 iterations 430
Cbc0038I Pass 115: (3.17 seconds) suminf.    6.57797 (61) obj. 812646 iterations 48
Cbc0038I Pass 116: (3.19 seconds) suminf.    6.30503 (48) obj. 812646 iterations 239
Cbc0038I Pass 117: (3.19 seconds) suminf.    6.30503 (48) obj. 812646 iterations 0
Cbc0038I Pass 118: (3.22 seconds) suminf.    3.90480 (35) obj. 812646 iterations 313
Cbc0038I Pass 119: (3.23 seconds) suminf.    3.89208 (35) obj. 812646 iterations 29
Cbc0038I Pass 120: (3.24 seconds) suminf.    4.53146 (39) obj. 812646 iterations 177
Cbc0038I Pass 121: (3.25 seconds) suminf.    4.42563 (39) obj. 812646 iterations 10
Cbc0038I Pass 122: (3.27 seconds) suminf.    4.42058 (36) obj. 812646 iterations 196
Cbc0038I Pass 123: (3.27 seconds) suminf.    3.53212 (32) obj. 812646 iterations 67
Cbc0038I Pass 124: (3.29 seconds) suminf.    5.38710 (35) obj. 812646 iterations 206
Cbc0038I Pass 125: (3.30 seconds) suminf.    6.42145 (26) obj. 812646 iterations 127
Cbc0038I Pass 126: (3.31 seconds) suminf.    4.13091 (24) obj. 812646 iterations 50
Cbc0038I Pass 127: (3.32 seconds) suminf.    4.88396 (37) obj. 812646 iterations 155
Cbc0038I Pass 128: (3.33 seconds) suminf.    4.64930 (36) obj. 812646 iterations 50
Cbc0038I Pass 129: (3.35 seconds) suminf.    3.65537 (24) obj. 812646 iterations 268
Cbc0038I Pass 130: (3.35 seconds) suminf.    3.63229 (19) obj. 812646 iterations 11
Cbc0038I Pass 131: (3.37 seconds) suminf.    4.59104 (45) obj. 812646 iterations 179
Cbc0038I Pass 132: (3.37 seconds) suminf.    5.05374 (53) obj. 812646 iterations 21
Cbc0038I Pass 133: (3.39 seconds) suminf.    8.80176 (49) obj. 812646 iterations 145
Cbc0038I Pass 134: (3.40 seconds) suminf.    5.79842 (36) obj. 812646 iterations 104
Cbc0038I Pass 135: (3.42 seconds) suminf.    5.40256 (63) obj. 812646 iterations 223
Cbc0038I Pass 136: (3.43 seconds) suminf.    5.75513 (59) obj. 812646 iterations 52
Cbc0038I Pass 137: (3.44 seconds) suminf.    4.78418 (35) obj. 812646 iterations 143
Cbc0038I Pass 138: (3.45 seconds) suminf.    3.78066 (32) obj. 812646 iterations 47
Cbc0038I Pass 139: (3.47 seconds) suminf.    4.91372 (52) obj. 812646 iterations 179
Cbc0038I Pass 140: (3.51 seconds) suminf.   13.01268 (49) obj. 812646 iterations 497
Cbc0038I Pass 141: (3.54 seconds) suminf.    3.11245 (35) obj. 812646 iterations 248
Cbc0038I Pass 142: (3.56 seconds) suminf.    8.50850 (29) obj. 812646 iterations 289
Cbc0038I Pass 143: (3.60 seconds) suminf.    4.42288 (57) obj. 812646 iterations 425
Cbc0038I Pass 144: (3.62 seconds) suminf.    6.47511 (56) obj. 812646 iterations 250
Cbc0038I Pass 145: (3.72 seconds) suminf.   61.10074 (339) obj. 812646 iterations 926
Cbc0038I No solution found this major pass
Cbc0038I Before mini branch and bound, 444 integers at bound fixed and 0 continuous
Cbc0038I Full problem 3162 rows 1043 columns, reduced to 2039 rows 599 columns - 197 fixed gives 670, 196 - ok now
Cbc0038I Mini branch and bound did not improve solution (3.83 seconds)
Cbc0038I After 3.83 seconds - Feasibility pump exiting with objective of 819200 - took 2.72 seconds
Cbc0012I Integer solution of 819200 found by feasibility pump after 0 iterations and 0 nodes (3.83 seconds)
Cbc0031I 63 added rows had average density of 4.6507937
Cbc0013I At root node, 480 cuts changed objective from 753664 to 822958.75 in 5 passes
Cbc0014I Cut generator 0 (Probing) - 641 row cuts average 2.8 elements, 62 column cuts (62 active)  in 0.054 seconds - new frequency is 1
Cbc0014I Cut generator 1 (Gomory) - 27 row cuts average 4.9 elements, 0 column cuts (0 active)  in 0.087 seconds - new frequency is -100
Cbc0014I Cut generator 2 (Knapsack) - 71 row cuts average 7.7 elements, 0 column cuts (0 active)  in 0.009 seconds - new frequency is 1
Cbc0014I Cut generator 3 (Clique) - 0 row cuts average 0.0 elements, 0 column cuts (0 active)  in 0.003 seconds - new frequency is -100
Cbc0014I Cut generator 4 (MixedIntegerRounding2) - 0 row cuts average 0.0 elements, 0 column cuts (0 active)  in 0.006 seconds - new frequency is -100
Cbc0014I Cut generator 5 (FlowCover) - 1 row cuts average 5.0 elements, 0 column cuts (0 active)  in 0.004 seconds - new frequency is -100
Cbc0014I Cut generator 6 (TwoMirCuts) - 529 row cuts average 74.7 elements, 0 column cuts (0 active)  in 0.120 seconds - new frequency is -100
Cbc0001I Search completed - best objective 819200, took 45701 iterations and 0 nodes (13.40 seconds)
Cbc0035I Maximum depth 0, 7 variables fixed on reduced cost
Cuts at root node changed objective from 753664 to 822959
Probing was tried 5 times and created 703 cuts of which 0 were active after adding rounds of cuts (0.054 seconds)
Gomory was tried 5 times and created 27 cuts of which 0 were active after adding rounds of cuts (0.087 seconds)
Knapsack was tried 5 times and created 71 cuts of which 0 were active after adding rounds of cuts (0.009 seconds)
Clique was tried 5 times and created 0 cuts of which 0 were active after adding rounds of cuts (0.003 seconds)
MixedIntegerRounding2 was tried 5 times and created 0 cuts of which 0 were active after adding rounds of cuts (0.006 seconds)
FlowCover was tried 5 times and created 1 cuts of which 0 were active after adding rounds of cuts (0.004 seconds)
TwoMirCuts was tried 5 times and created 529 cuts of which 0 were active after adding rounds of cuts (0.120 seconds)
ZeroHalf was tried 1 times and created 0 cuts of which 0 were active after adding rounds of cuts (0.011 seconds)

Result - Optimal solution found

Objective value:                819200.00000000
Enumerated nodes:               0
Total iterations:               45701
Time (CPU seconds):             13.49
Time (Wallclock seconds):       13.53

Total time (CPU seconds):       13.50   (Wallclock seconds):       13.56

